outputs/case_89.model.txt
bank_license_permitted = False
broker_fulfill_fidelity = True
application_date_after_or_equal_2021_03_03 = False
broker_charge_fee = 0
guarantee_deposit_amount = 100000
apply_insurance_broker = True
days_since_transfer = 0
insurance_type_guarantee = True
broker_disclose_fee_standard = True
apply_reinsurance = False
transfer_due_to_inheritance = False
is_broker = True
broker_provide_written_report = True
bank_operate_agent = False
bank_operate_broker = False
application_date_before_2017_06_24 = True
insurance_type_responsibility = True
equity_or_capital_transfer_ratio = 0
is_agent = False
is_notary = False
guarantee_minimum_amount = 100000
broker_paid_in_capital = 5000000
license_held = True
guarantee_minimum_amount_set_by_authority = True
broker_exercise_duty_of_care = True
broker_capital_adjustment_deadline = 1
license_permitted = True
broker_duty_of_care_and_fidelity = True
management_rules_set_by_authority = True
broker_capital_minimum_amount = 5000000
contribution_cash_only = True
broker_capital_amount_compliance = True
relevant_insurance_type = True
capital_minimum_amount = 1
broker_capital_adjustment_compliance = True
penalty = False
practice_certificate_held = True
relevant_insurance_covered = True
bank_permitted_to_operate_agent_or_broker = False
agent_broker_notary_license_and_guarantee = True
broker_cash_contribution_only = True
broker_provide_written_report_and_disclose_fee = True
broker_capital_and_adjustment_compliance = True
qualification_and_management_rules = True
broker_capital_and_management_compliance = True